
Gurobi 9.1.2 (win64) logging started Tue Dec  7 13:28:46 2021

Gurobi Optimizer version 9.1.2 build v9.1.2rc0 (win64)
Thread count: 8 physical cores, 8 logical processors, using up to 8 threads
Optimize a model with 1 rows, 19 columns and 18 nonzeros
Model fingerprint: 0x89627869
Variable types: 1 continuous, 18 integer (18 binary)
Coefficient statistics:
  Matrix range     [1e+00, 1e+01]
  Objective range  [1e+00, 1e+00]
  Bounds range     [2e+01, 2e+01]
  RHS range        [1e+01, 1e+01]
Presolve time: 0.00s
Presolved: 1 rows, 19 columns, 18 nonzeros
Variable types: 1 continuous, 18 integer (18 binary)

Root simplex log...

Iteration    Objective       Primal Inf.    Dual Inf.      Time
       0   -1.6173776e+01   8.818037e-01   0.000000e+00     14s
       5   -1.2687460e+01   0.000000e+00   0.000000e+00     14s

Root relaxation: objective -1.268746e+01, 5 iterations, 0.00 seconds

    Nodes    |    Current Node    |     Objective Bounds      |     Work
 Expl Unexpl |  Obj  Depth IntInf | Incumbent    BestBd   Gap | It/Node Time

     0     0  -12.68746    0    1          -  -12.68746      -     -   14s
H    0     0                      -0.0809219  -12.68746      -     -   14s
     0     0   -0.53419    0    2   -0.08092   -0.53419   560%     -   14s
*    0     0               0      -0.5341883   -0.53419  0.00%     -   14s

Cutting planes:
  Cover: 1
  Implied bound: 1
  MIR: 2
  Lazy constraints: 4

Explored 1 nodes (24 simplex iterations) in 14.28 seconds
Thread count was 8 (of 8 available processors)

Solution count 2: -0.534188 -0.0809219 

Optimal solution found (tolerance 1.00e-04)
Best objective -5.341882781071e-01, best bound -5.341882781071e-01, gap 0.0000%

User-callback calls 94, time in user-callback 17.86 sec
